21422
1 0 0 1 1 1 0 1 1 1 1 1 1 0 1 1 0 0 1 1 0 1 1 0 1 1 0 1 1 0 
18 19 21 27 21 12 15 27 22 28 4 28 10 3 28 18 3 10 22 0 18 21 5 24 10 18 27 19 4 21 19 19 4 21 27 12 8 8 24 15 18 9 12 4 8 19 3 21 19 14 24 24 24 21 8 12 11 9 18 7 4 0 7 8 3 11 5 14 28 25 18 12 19 9 5 10 10 5 8 24 10 0 9 25 4 10 19 5 27 7 28 19 25 25 0 3 11 12 0 28 28 15 25 18 4 0 4 24 22 3 19 4 27 12 12 8 28 7 14 8 9 11 28 19 9 21 21 11 19 0 28 24 25 10 5 9 3 3 28 10 12 22 11 11 25 5 24 15 27 25 24 0 10 0 8 11 5 15 3 3 3 27 10 24 5 27 5 4 3 21 5 8 19 14 4 21 0 10 4 10 5 21 21 19 12 8 28 10 0 21 21 21 19 4 7 12 7 15 10 19 
